Lab1/houses.cnf
p cnf 3 3
-1 2 3 0
-4 5 6 0
-7 8 9 0
1 4 7 0
-2 1 3 0
-5 4 6 0
-8 7 9 0
2 5 8 0
-3 1 2 0
-6 4 5 0
-9 7 8 0
3 6 9 0
-10 11 12 -13 0
-10 14 15 -16 0
-10 17 18 -19 0
20 21 22 0
-23 11 20 -13 0
-23 14 21 -16 0
-23 17 22 -19 0
12 15 18 0
-24 11 12 -20 0
-24 14 15 -21 0
-24 17 18 -22 0
13 16 19 0
-25 26 27 0
-28 29 30 0
-31 32 33 0
25 28 31 0
-26 25 27 0
-29 28 30 0
-32 31 33 0
26 29 32 0
-27 25 26 0
-30 28 29 0
-33 31 32 0
27 30 33 0
